Traveling Salesman Problem/TSP_generados/Aleatorio1620390858_5.tsp
NAME: Aleatorio1620390858_5.tsp
COMMENT: Randomly generated scenario
TYPE: TSP
DIMENSION: 5
EDGE_WEIGHT_TYPE: ATT
NODE_COORD_SECTION
1 10.01 2.21
2 30.05 44.95
3 48.48 42.59
4 28.21 28.46
5 28.54 46.15
