Traveling Salesman Problem/TSP_generados/Aleatorio1620390858_5.opt.tour
NAME: Aleatorio1620390858_5.opt.tour
COMMENT: Optimal solution for Aleatorio1620390858_5 (124.84768075538032)
TYPE: TOUR
DIMENSION: 5
TOUR_SECTION
1 4 3 2 5
-1
EOF
